\ This file has been generated by DOcplex
\ ENCODING=ISO-8859-1
\Problem name: Orandom9742_9.lp

Minimize
 obj: - 20.000000018065 x0 - 10.000000009033 x1 - 5.000000004516 x2
      - 40.000000018065 x3 - 20.000000009033 x4 - 10.000000004516 x5
      - 28.000000018065 x6 - 14.000000009033 x7 - 7.000000004516 x8 + [
      48.000000010323 x0^2 + 48.000000010323 x0*x1 + 24.000000005162 x0*x2
      + 32.000000020646 x0*x3 + 16.000000010323 x0*x4 + 8.000000005162 x0*x5
      + 32.000000020646 x0*x6 + 16.000000010323 x0*x7 + 8.000000005162 x0*x8
      + 12.000000002581 x1^2 + 12.000000002581 x1*x2 + 16.000000010323 x1*x3
      + 8.000000005162 x1*x4 + 4.000000002581 x1*x5 + 16.000000010323 x1*x6
      + 8.000000005162 x1*x7 + 4.000000002581 x1*x8 + 3.000000000645 x2^2
      + 8.000000005162 x2*x3 + 4.000000002581 x2*x4 + 2.000000001290 x2*x5
      + 8.000000005162 x2*x6 + 4.000000002581 x2*x7 + 2.000000001290 x2*x8
      + 16.000000010323 x3^2 + 16.000000010323 x3*x4 + 8.000000005162 x3*x5
      + 32.000000020646 x3*x6 + 16.000000010323 x3*x7 + 8.000000005162 x3*x8
      + 4.000000002581 x4^2 + 4.000000002581 x4*x5 + 16.000000010323 x4*x6
      + 8.000000005162 x4*x7 + 4.000000002581 x4*x8 + 1.000000000645 x5^2
      + 8.000000005162 x5*x6 + 4.000000002581 x5*x7 + 2.000000001290 x5*x8
      + 48.000000010323 x6^2 + 48.000000010323 x6*x7 + 24.000000005162 x6*x8
      + 12.000000002581 x7^2 + 12.000000002581 x7*x8 + 3.000000000645 x8^2 ]/2 +
      24.500000015807
Subject To

Bounds
 0 <= x0 <= 1
 0 <= x1 <= 1
 0 <= x2 <= 1
 0 <= x3 <= 1
 0 <= x4 <= 1
 0 <= x5 <= 1
 0 <= x6 <= 1
 0 <= x7 <= 1
 0 <= x8 <= 1

Binaries
 x0 x1 x2 x3 x4 x5 x6 x7 x8
End
